<number of tasks>
20

<cycle time>
1000

<order strength>
0,5


<task times>
1 676
2 683
3 575
4 518
5 546
6 406
7 447
8 464
9 481
10 639
11 473
12 362
13 618
14 483
15 448
16 602
17 482
18 613
19 395
20 766

<precedence relations>
1,5
2,4
2,6
3,6
4,8
5,9
6,7
6,10
6,11
7,12
8,14
9,14
10,13
11,14
11,15
12,16
13,17
14,17
14,18
15,18
16,19
17,19
17,20

<end>
